NAME : tsp20_19.137.tour
COMMENT : Length = 137
COMMENT : Found by LKH [Keld Helsgaun]
TYPE : TOUR
DIMENSION : 20
TOUR_SECTION
1
9
10
18
5
17
4
7
12
16
14
2
15
8
6
20
11
3
19
13
-1
EOF
